n_machines = 2;
n_resources = 3;
n_jobs = 38;
horizon = 2033;
LB = 1016;
n_jobs_per_resource = [14, 6, 18];
duration = [49, 96, 56, 62, 92, 27, 51, 61, 96, 44, 2, 55, 90, 6, 98, 17, 72, 12, 23, 69, 98, 74, 96, 81, 26, 19, 12, 69, 69, 8, 44, 8, 22, 91, 57, 82, 88, 11]